(set-info :source |printed by MathSAT|)
(declare-fun call_moesi.garde_mo3 () Bool)
(declare-fun call_moesi.ite24 () Int)
(declare-fun call_moesi.ite25 () Int)
(declare-fun call_moesi.flby4 () Int)
(declare-fun call_moesi.ite17 () Int)
(declare-fun call_moesi.ite3 () Int)
(declare-fun call_moesi.ite9 () Int)
(declare-fun call_moesi.ite34 () Int)
(declare-fun call_moesi.ite4 () Int)
(declare-fun flby () Bool)
(declare-fun call_moesi.ite15 () Int)
(declare-fun call_moesi.ite19 () Int)
(declare-fun call_moesi.ite16 () Int)
(declare-fun call_moesi.flby2 () Int)
(declare-fun call_moesi.flby5 () Int)
(declare-fun owned_mo () Int)
(declare-fun call_moesi.ite33 () Int)
(declare-fun param_init_invalid_mo () Int)
(declare-fun shared_mo () Int)
(declare-fun call_moesi.ite32 () Int)
(declare-fun call_moesi.ite () Int)
(declare-fun modified_mo () Int)
(declare-fun call_moesi.ite30 () Int)
(declare-fun _OK_ () Bool)
(declare-fun call_moesi.garde_mo1 () Bool)
(declare-fun call_moesi.modified_mo () Int)
(declare-fun call_moesi.shared_mo () Int)
(declare-fun param_etat_mo2 () Bool)
(declare-fun call_moesi.ite28 () Int)
(declare-fun call_moesi.ite20 () Int)
(declare-fun param_etat_mo1 () Bool)
(declare-fun call_moesi.ite14 () Int)
(declare-fun call_moesi.ite7 () Int)
(declare-fun call_moesi.owned_mo () Int)
(declare-fun exclusive_mo () Int)
(declare-fun call_moesi.ite18 () Int)
(declare-fun call_moesi.ite29 () Int)
(declare-fun call_moesi.ite22 () Int)
(declare-fun call_moesi.ite26 () Int)
(declare-fun call_moesi.ite27 () Int)
(declare-fun call_moesi.flby6 () Int)
(declare-fun call_moesi.flby () Bool)
(declare-fun call_moesi.erreur_mo () Bool)
(declare-fun call_Sofar.flby () Bool)
(declare-fun call_moesi.ite8 () Int)
(declare-fun call_Sofar.Sofar () Bool)
(declare-fun call_moesi.ite12 () Int)
(declare-fun call_excludes4.excludes () Bool)
(declare-fun call_moesi.ite21 () Int)
(declare-fun invalid_mo () Int)
(declare-fun call_moesi.ite10 () Int)
(declare-fun call_moesi.ite13 () Int)
(declare-fun param_etat_mo3 () Bool)
(declare-fun env () Bool)
(declare-fun call_moesi.flby3 () Int)
(declare-fun call_moesi.ite31 () Int)
(declare-fun param_etat_mo4 () Bool)
(declare-fun call_moesi.ite6 () Int)
(declare-fun call_moesi.invalid_mo () Int)
(declare-fun erreur_mo () Bool)
(declare-fun call_moesi.ite23 () Int)
(declare-fun call_moesi.exclusive_mo () Int)
(declare-fun call_moesi.ite5 () Int)
(declare-fun call_moesi.ite2 () Int)
(declare-fun call_moesi.ite11 () Int)
(declare-fun call_moesi.garde_mo4 () Bool)
(define-fun .def_928 () Bool (= call_Sofar.flby call_Sofar.Sofar))
(define-fun .def_923 () Bool (and param_etat_mo4 param_etat_mo3))
(define-fun .def_921 () Bool (and param_etat_mo4 param_etat_mo2))
(define-fun .def_919 () Bool (and param_etat_mo2 param_etat_mo3))
(define-fun .def_917 () Bool (and param_etat_mo4 param_etat_mo1))
(define-fun .def_915 () Bool (and param_etat_mo1 param_etat_mo3))
(define-fun .def_914 () Bool (and param_etat_mo2 param_etat_mo1))
(define-fun .def_916 () Bool (or .def_914 .def_915))
(define-fun .def_918 () Bool (or .def_916 .def_917))
(define-fun .def_920 () Bool (or .def_918 .def_919))
(define-fun .def_922 () Bool (or .def_920 .def_921))
(define-fun .def_924 () Bool (or .def_922 .def_923))
(define-fun .def_925 () Bool (not .def_924))
(define-fun .def_926 () Bool (= call_excludes4.excludes .def_925))
(define-fun .def_912 () Bool (= call_moesi.flby call_moesi.erreur_mo))
(define-fun .def_910 () Bool (= call_moesi.flby6 call_moesi.owned_mo))
(define-fun .def_908 () Bool (= call_moesi.flby5 call_moesi.invalid_mo))
(define-fun .def_906 () Bool (= call_moesi.flby4 call_moesi.shared_mo))
(define-fun .def_904 () Bool (= call_moesi.flby3 call_moesi.exclusive_mo))
(define-fun .def_902 () Bool (= call_moesi.flby2 call_moesi.modified_mo))
(define-fun .def_900 () Bool (= env call_Sofar.Sofar))
(define-fun .def_897 () Bool (= erreur_mo call_moesi.erreur_mo))
(define-fun .def_893 () Bool (= owned_mo call_moesi.owned_mo))
(define-fun .def_889 () Bool (= invalid_mo call_moesi.invalid_mo))
(define-fun .def_885 () Bool (= shared_mo call_moesi.shared_mo))
(define-fun .def_881 () Bool (= exclusive_mo call_moesi.exclusive_mo))
(define-fun .def_877 () Bool (= modified_mo call_moesi.modified_mo))
(define-fun .def_871 () Bool (not env))
(define-fun .def_872 () Bool (or flby .def_871))
(define-fun .def_873 () Bool (= _OK_ .def_872))
(define-fun .def_865 () Bool (= call_moesi.ite32 call_moesi.ite33))
(define-fun .def_866 () Bool (or param_etat_mo3 .def_865))
(define-fun .def_862 () Bool (= call_moesi.ite30 call_moesi.ite33))
(define-fun .def_840 () Bool (not param_etat_mo3))
(define-fun .def_863 () Bool (or .def_840 .def_862))
(define-fun .def_859 () Bool (= call_moesi.ite26 call_moesi.ite27))
(define-fun .def_860 () Bool (or param_etat_mo3 .def_859))
(define-fun .def_856 () Bool (= call_moesi.ite27 call_moesi.ite24))
(define-fun .def_857 () Bool (or .def_840 .def_856))
(define-fun .def_852 () Bool (= call_moesi.ite20 call_moesi.ite21))
(define-fun .def_853 () Bool (or param_etat_mo3 .def_852))
(define-fun .def_849 () Bool (= call_moesi.ite18 call_moesi.ite21))
(define-fun .def_850 () Bool (or .def_840 .def_849))
(define-fun .def_846 () Bool (= call_moesi.ite13 call_moesi.ite14))
(define-fun .def_847 () Bool (or param_etat_mo3 .def_846))
(define-fun .def_843 () Bool (= call_moesi.ite11 call_moesi.ite14))
(define-fun .def_844 () Bool (or .def_840 .def_843))
(define-fun .def_839 () Bool (= call_moesi.ite3 call_moesi.ite6))
(define-fun .def_841 () Bool (or .def_839 .def_840))
(define-fun .def_836 () Bool (= call_moesi.ite5 call_moesi.ite6))
(define-fun .def_838 () Bool (or .def_836 param_etat_mo3))
(define-fun .def_842 () Bool (and .def_838 .def_841))
(define-fun .def_845 () Bool (and .def_842 .def_844))
(define-fun .def_848 () Bool (and .def_845 .def_847))
(define-fun .def_851 () Bool (and .def_848 .def_850))
(define-fun .def_854 () Bool (and .def_851 .def_853))
(define-fun .def_858 () Bool (and .def_854 .def_857))
(define-fun .def_861 () Bool (and .def_858 .def_860))
(define-fun .def_864 () Bool (and .def_861 .def_863))
(define-fun .def_867 () Bool (and .def_864 .def_866))
(define-fun .def_832 () Bool (= call_moesi.ite34 call_moesi.ite33))
(define-fun .def_833 () Bool (or param_etat_mo1 .def_832))
(define-fun .def_828 () Bool (= call_moesi.ite29 call_moesi.ite34))
(define-fun .def_798 () Bool (not param_etat_mo1))
(define-fun .def_829 () Bool (or .def_798 .def_828))
(define-fun .def_823 () Bool (= call_moesi.ite28 call_moesi.ite27))
(define-fun .def_824 () Bool (or param_etat_mo1 .def_823))
(define-fun .def_819 () Bool (= call_moesi.ite23 call_moesi.ite28))
(define-fun .def_820 () Bool (or .def_798 .def_819))
(define-fun .def_814 () Bool (= call_moesi.ite22 call_moesi.ite21))
(define-fun .def_815 () Bool (or param_etat_mo1 .def_814))
(define-fun .def_810 () Bool (= call_moesi.ite17 call_moesi.ite22))
(define-fun .def_811 () Bool (or .def_798 .def_810))
(define-fun .def_805 () Bool (= call_moesi.ite15 call_moesi.ite16))
(define-fun .def_806 () Bool (or param_etat_mo1 .def_805))
(define-fun .def_802 () Bool (= call_moesi.ite9 call_moesi.ite16))
(define-fun .def_803 () Bool (or .def_798 .def_802))
(define-fun .def_797 () Bool (= call_moesi.ite call_moesi.ite8))
(define-fun .def_799 () Bool (or .def_797 .def_798))
(define-fun .def_794 () Bool (= call_moesi.ite7 call_moesi.ite8))
(define-fun .def_796 () Bool (or .def_794 param_etat_mo1))
(define-fun .def_800 () Bool (and .def_796 .def_799))
(define-fun .def_804 () Bool (and .def_800 .def_803))
(define-fun .def_807 () Bool (and .def_804 .def_806))
(define-fun .def_812 () Bool (and .def_807 .def_811))
(define-fun .def_816 () Bool (and .def_812 .def_815))
(define-fun .def_821 () Bool (and .def_816 .def_820))
(define-fun .def_825 () Bool (and .def_821 .def_824))
(define-fun .def_830 () Bool (and .def_825 .def_829))
(define-fun .def_834 () Bool (and .def_830 .def_833))
(define-fun .def_790 () Bool (= call_moesi.ite15 call_moesi.ite14))
(define-fun .def_791 () Bool (or param_etat_mo2 .def_790))
(define-fun .def_786 () Bool (= call_moesi.ite10 call_moesi.ite15))
(define-fun .def_781 () Bool (not param_etat_mo2))
(define-fun .def_787 () Bool (or .def_781 .def_786))
(define-fun .def_780 () Bool (= call_moesi.ite7 call_moesi.ite2))
(define-fun .def_782 () Bool (or .def_780 .def_781))
(define-fun .def_776 () Bool (= call_moesi.ite7 call_moesi.ite6))
(define-fun .def_778 () Bool (or .def_776 param_etat_mo2))
(define-fun .def_783 () Bool (and .def_778 .def_782))
(define-fun .def_788 () Bool (and .def_783 .def_787))
(define-fun .def_792 () Bool (and .def_788 .def_791))
(define-fun .def_835 () Bool (and .def_792 .def_834))
(define-fun .def_868 () Bool (and .def_835 .def_867))
(define-fun .def_874 () Bool (and .def_868 .def_873))
(define-fun .def_878 () Bool (and .def_874 .def_877))
(define-fun .def_882 () Bool (and .def_878 .def_881))
(define-fun .def_886 () Bool (and .def_882 .def_885))
(define-fun .def_890 () Bool (and .def_886 .def_889))
(define-fun .def_894 () Bool (and .def_890 .def_893))
(define-fun .def_898 () Bool (and .def_894 .def_897))
(define-fun .def_901 () Bool (and .def_898 .def_900))
(define-fun .def_903 () Bool (and .def_901 .def_902))
(define-fun .def_905 () Bool (and .def_903 .def_904))
(define-fun .def_907 () Bool (and .def_905 .def_906))
(define-fun .def_909 () Bool (and .def_907 .def_908))
(define-fun .def_911 () Bool (and .def_909 .def_910))
(define-fun .def_913 () Bool (and .def_911 .def_912))
(define-fun .def_927 () Bool (and .def_913 .def_926))
(define-fun .def_929 () Bool (and .def_927 .def_928))
(define-fun .def_772 () Bool (= call_excludes4.excludes call_Sofar.flby))
(define-fun .def_768 () Bool (= call_moesi.flby6 0))
(define-fun .def_765 () Bool (= param_init_invalid_mo call_moesi.flby5))
(define-fun .def_761 () Bool (= call_moesi.flby4 0))
(define-fun .def_758 () Bool (= call_moesi.flby3 0))
(define-fun .def_755 () Bool (= call_moesi.flby2 0))
(define-fun .def_752 () Bool (not call_moesi.flby))
(define-fun .def_747 () Bool (= call_moesi.ite31 0))
(define-fun .def_739 () Bool (not call_moesi.garde_mo4))
(define-fun .def_748 () Bool (or .def_739 .def_747))
(define-fun .def_744 () Bool (= call_moesi.ite19 0))
(define-fun .def_745 () Bool (or .def_739 .def_744))
(define-fun .def_741 () Bool (= call_moesi.ite4 0))
(define-fun .def_742 () Bool (or .def_739 .def_741))
(define-fun .def_737 () Bool (= call_moesi.ite12 1))
(define-fun .def_740 () Bool (or .def_737 .def_739))
(define-fun .def_743 () Bool (and .def_740 .def_742))
(define-fun .def_746 () Bool (and .def_743 .def_745))
(define-fun .def_749 () Bool (and .def_746 .def_748))
(define-fun .def_733 () Bool (= call_moesi.ite30 0))
(define-fun .def_722 () Bool (not call_moesi.garde_mo3))
(define-fun .def_734 () Bool (or .def_722 .def_733))
(define-fun .def_729 () Bool (= call_moesi.ite18 0))
(define-fun .def_730 () Bool (or .def_722 .def_729))
(define-fun .def_725 () Bool (= call_moesi.ite3 0))
(define-fun .def_726 () Bool (or .def_722 .def_725))
(define-fun .def_720 () Bool (= call_moesi.ite11 1))
(define-fun .def_723 () Bool (or .def_720 .def_722))
(define-fun .def_727 () Bool (and .def_723 .def_726))
(define-fun .def_731 () Bool (and .def_727 .def_730))
(define-fun .def_735 () Bool (and .def_731 .def_734))
(define-fun .def_715 () Bool (= call_moesi.ite 0))
(define-fun .def_712 () Bool (not call_moesi.garde_mo1))
(define-fun .def_716 () Bool (or .def_712 .def_715))
(define-fun .def_710 () Bool (= call_moesi.ite9 0))
(define-fun .def_713 () Bool (or .def_710 .def_712))
(define-fun .def_717 () Bool (and .def_713 .def_716))
(define-fun .def_704 () Bool (= call_moesi.ite31 call_moesi.ite32))
(define-fun .def_685 () Bool (not param_etat_mo4))
(define-fun .def_705 () Bool (or .def_685 .def_704))
(define-fun .def_699 () Bool (= call_moesi.ite25 call_moesi.ite26))
(define-fun .def_700 () Bool (or .def_685 .def_699))
(define-fun .def_694 () Bool (= call_moesi.ite19 call_moesi.ite20))
(define-fun .def_695 () Bool (or .def_685 .def_694))
(define-fun .def_689 () Bool (= call_moesi.ite4 call_moesi.ite5))
(define-fun .def_690 () Bool (or .def_685 .def_689))
(define-fun .def_683 () Bool (= call_moesi.ite12 call_moesi.ite13))
(define-fun .def_686 () Bool (or .def_683 .def_685))
(define-fun .def_691 () Bool (and .def_686 .def_690))
(define-fun .def_696 () Bool (and .def_691 .def_695))
(define-fun .def_701 () Bool (and .def_696 .def_700))
(define-fun .def_706 () Bool (and .def_701 .def_705))
(define-fun .def_708 () Bool (and .def_706 flby))
(define-fun .def_718 () Bool (and .def_708 .def_717))
(define-fun .def_736 () Bool (and .def_718 .def_735))
(define-fun .def_750 () Bool (and .def_736 .def_749))
(define-fun .def_753 () Bool (and .def_750 .def_752))
(define-fun .def_756 () Bool (and .def_753 .def_755))
(define-fun .def_759 () Bool (and .def_756 .def_758))
(define-fun .def_762 () Bool (and .def_759 .def_761))
(define-fun .def_766 () Bool (and .def_762 .def_765))
(define-fun .def_769 () Bool (and .def_766 .def_768))
(define-fun .def_773 () Bool (and .def_769 .def_772))
(define-fun .def_930 () Bool (and .def_773 .def_929))
(assert .def_930)
